0 1442
1 1425
2 1412
3 1392
4 1381
5 1371
6 1361
7 1347
8 1339
9 1327
10 1321
11 1315
12 1306
13 1303
14 1295
15 1290
16 1286
17 1280
18 1269
19 1266
20 1260
21 1257
22 1256
23 1250
24 1246
25 1243
26 1240
27 1239
28 1237
29 1232
30 1223
31 1221
32 1217
33 1215
34 1208
35 1207
36 1204
37 1200
38 1197
39 1190
40 1187
41 1182
42 1179
43 1176
44 1175
45 1167
46 1164
47 1161
48 1160
49 1156
50 1151
51 1148
52 1146
53 1141
54 1135
55 1135
56 1129
57 1125
58 1123
59 1122
60 1118
61 1117
62 1112
63 1110
64 1108
65 1106
66 1104
67 1102
68 1101
69 1100
70 1099
71 1098
72 1096
73 1092
74 1091
75 1091
76 1088
77 1087
78 1085
79 1083
80 1080
81 1076
82 1075
83 1074
84 1072
85 1071
86 1067
87 1067
88 1066
89 1066
90 1062
91 1061
92 1055
93 1054
94 1053
95 1053
96 1051
97 1049
98 1047
99 1044
100 1043
101 1042
102 1040
103 1037
104 1035
105 1033
106 1032
107 1030
108 1027
109 1024
110 1023
111 1021
112 1019
113 1019
114 1018
115 1016
116 1012
117 1011
118 1009
119 1008
120 1007
121 1007
122 1002
123 999
124 999
125 997
126 995
127 995
128 992
129 990
130 988
131 986
132 984
133 982
134 982
135 981
136 979
137 978
138 976
139 976
140 975
141 974
142 973
143 973
144 973
145 969
146 967
147 965
148 965
149 964
150 962
151 962
152 961
153 960
154 960
155 959
156 957
157 956
158 955
159 954
160 952
161 951
162 951
163 949
164 949
165 949
166 947
167 946
168 946
169 944
170 944
171 943
172 942
173 942
174 941
175 939
176 938
177 937
178 936
179 933
180 932
181 931
182 930
183 929
184 928
185 927
186 926
187 923
188 921
189 920
190 919
191 919
192 918
193 916
194 915
195 914
196 914
197 912
198 911
199 909
200 908
201 907
202 906
203 906
204 906
205 905
206 904
207 902
208 901
209 901
210 901
211 900
212 898
213 898
214 896
215 896
216 895
217 895
218 894
219 894
220 892
221 891
222 890
223 890
224 888
225 887
226 887
227 887
228 886
229 886
230 885
231 885
232 884
233 883
234 882
235 880
236 879
237 878
238 877
239 877
240 876
241 875
242 875
243 874
244 874
245 872
246 872
247 872
248 872
249 872
250 870
251 870
252 870
253 869
254 869
255 866
256 866
257 864
258 862
259 862
260 862
261 862
262 861
263 861
264 860
265 859
266 859
267 858
268 857
269 857
270 857
271 856
272 854
273 853
274 851
275 850
276 850
277 849
278 848
279 847
280 847
281 845
282 845
283 845
284 844
285 843
286 843
287 842
288 842
289 842
290 840
291 839
292 839
293 838
294 838
295 837
296 837
297 837
298 837
299 836
300 836
301 835
302 834
303 833
304 833
305 833
306 832
307 832
308 831
309 831
310 830
311 829
312 828
313 828
314 827
315 827
316 826
317 825
318 825
319 823
320 822
321 821
322 820
323 820
324 819
325 819
326 819
327 819
328 818
329 818
330 817
331 817
332 817
333 816
334 815
335 815
336 814
337 814
338 813
339 813
340 811
341 810
342 810
343 809
344 809
345 809
346 808
347 807
348 807
349 807
350 807
351 806
352 805
353 805
354 804
355 803
356 803
357 803
358 802
359 802
360 802
361 801
362 801
363 801
364 800
365 800
366 800
367 800
368 799
369 798
370 798
371 797
372 796
373 796
374 796
375 795
376 794
377 793
378 793
379 792
380 792
381 791
382 791
383 791
384 791
385 790
386 790
387 789
388 789
389 788
390 787
391 787
392 787
393 787
394 786
395 786
396 786
397 786
398 786
399 786
400 785
401 784
402 783
403 782
404 782
405 782
406 782
407 782
408 782
409 781
410 781
411 781
412 781
413 781
414 780
415 779
416 779
417 779
418 778
419 778
420 778
421 778
422 778
423 778
424 778
425 778
426 777
427 777
428 777
429 777
430 775
431 774
432 774
433 773
434 773
435 771
436 771
437 771
438 771
439 770
440 770
441 770
442 769
443 769
444 768
445 768
446 768
447 768
448 768
449 767
450 767
451 767
452 767
453 767
454 766
455 765
456 764
457 764
458 763
459 762
460 762
461 762
462 762
463 761
464 761
465 760
466 760
467 760
468 760
469 760
470 759
471 758
472 757
473 757
474 756
475 756
476 756
477 756
478 755
479 755
480 755
481 755
482 755
483 754
484 754
485 754
486 754
487 753
488 753
489 753
490 752
491 752
492 751
493 751
494 751
495 751
496 750
497 750
498 750
499 750
500 750
501 749
502 749
503 749
504 748
505 747
506 747
507 747
508 747
509 746
510 746
511 746
512 746
513 746
514 746
515 746
516 745
517 745
518 745
519 745
520 745
521 744
522 744
523 744
524 743
525 742
526 742
527 742
528 742
529 741
530 741
531 740
532 740
533 739
534 739
535 739
536 738
537 738
538 738
539 738
540 737
541 737
542 736
543 736
544 736
545 736
546 736
547 736
548 735
549 735
550 735
551 735
552 735
553 735
554 735
555 734
556 734
557 734
558 733
559 733
560 732
561 732
562 732
563 732
564 731
565 731
566 731
567 730
568 730
569 730
570 730
571 730
572 730
573 730
574 729
575 729
576 729
577 729
578 729
579 729
580 728
581 728
582 728
583 727
584 727
585 727
586 727
587 727
588 727
589 727
590 726
591 726
592 726
593 726
594 726
595 725
596 725
597 725
598 725
599 725
600 725
601 725
602 725
603 725
604 725
605 724
606 723
607 723
608 723
609 723
610 723
611 723
612 722
613 722
614 722
615 722
616 722
617 721
618 721
619 721
620 721
621 719
622 719
623 719
624 718
625 718
626 718
627 718
628 718
629 717
630 717
631 717
632 717
633 717
634 716
635 716
636 716
637 716
638 715
639 715
640 715
641 715
642 715
643 714
644 714
645 714
646 714
647 714
648 714
649 714
650 714
651 714
652 714
653 714
654 714
655 713
656 713
657 713
658 713
659 713
660 713
661 713
662 713
663 713
664 713
665 713
666 713
667 712
668 712
669 712
670 712
671 712
672 712
673 712
674 712
675 712
676 712
677 711
678 711
679 710
680 710
681 709
682 709
683 709
684 709
685 709
686 709
687 709
688 709
689 709
690 709
691 709
692 708
693 708
694 708
695 708
696 707
697 707
698 707
699 707
700 707
701 707
702 707
703 707
704 707
705 706
706 706
707 706
708 706
709 706
710 706
711 706
712 706
713 706
714 705
715 705
716 705
717 705
718 705
719 705
720 704
721 704
722 704
723 704
724 704
725 704
726 704
727 704
728 703
729 703
730 703
731 703
732 703
733 703
734 702
735 702
736 702
737 702
738 702
739 702
740 702
741 702
742 702
743 702
744 701
745 701
746 701
747 701
748 701
749 701
750 701
751 701
752 701
753 701
754 701
755 701
756 701
757 701
758 700
759 700
760 700
761 700
762 700
763 700
764 699
765 699
766 699
767 699
768 699
769 699
770 699
771 699
772 698
773 698
774 698
775 698
776 698
777 698
778 698
779 698
780 698
781 697
782 697
783 697
784 697
785 697
786 696
787 696
788 696
789 696
790 696
791 696
792 695
793 695
794 695
795 695
796 695
797 695
798 694
799 694
800 694
801 694
802 694
803 694
804 693
805 693
806 693
807 693
808 693
809 693
810 693
811 693
812 692
813 692
814 692
815 692
816 692
817 692
818 692
819 692
820 691
821 691
822 691
823 691
824 691
825 690
826 690
827 690
828 689
829 689
830 689
831 689
832 689
833 689
834 689
835 689
836 689
837 689
838 689
839 688
840 688
841 688
842 688
843 688
844 688
845 688
846 688
847 688
848 688
849 688
850 687
851 687
852 686
853 686
854 686
855 685
856 685
857 685
858 684
859 684
860 684
861 683
862 683
863 683
864 683
865 683
866 683
867 682
868 682
869 682
870 682
871 682
872 682
873 682
874 681
875 681
876 681
877 681
878 681
879 680
880 680
881 680
882 680
883 680
884 680
885 680
886 679
887 679
888 679
889 679
890 679
891 679
892 679
893 679
894 679
895 678
896 678
897 678
898 678
899 678
900 677
901 677
902 676
903 676
904 676
905 676
906 676
907 676
908 676
909 676
910 675
911 674
912 674
913 674
914 674
915 674
916 674
917 674
918 674
919 674
920 674
921 674
922 674
923 674
924 673
925 673
926 673
927 673
928 673
929 673
930 673
931 672
932 672
933 672
934 672
935 672
936 671
937 671
938 671
939 671
940 671
941 671
942 671
943 671
944 671
945 671
946 671
947 671
948 670
949 670
950 670
951 670
952 669
953 669
954 668
955 668
956 668
957 668
958 668
959 668
960 668
961 668
962 668
963 668
964 668
965 668
966 668
967 668
968 668
969 668
970 668
971 667
972 667
973 667
974 667
975 666
976 666
977 666
978 666
979 666
980 666
981 666
982 666
983 666
984 665
985 665
986 665
987 665
988 665
989 665
990 664
991 664
992 664
993 664
994 664
995 664
996 664
997 663
998 663
999 663
